
Gurobi 12.0.3 (win64) logging started Sat Nov  8 21:43:42 2025

Set parameter LogFile to value "Results\100_percent\stage_1\budget_10000\gurobi.log"
Gurobi Optimizer version 12.0.3 build v12.0.3rc0 (win64 - Windows 11+.0 (26200.2))

CPU model: Intel(R) Core(TM) Ultra 7 265K, instruction set [SSE2|AVX|AVX2]
Thread count: 20 physical cores, 20 logical processors, using up to 20 threads

Non-default parameters:
TimeLimit  3600

Optimize a model with 29203 rows, 2449703 columns and 17785935 nonzeros
Model fingerprint: 0x9df72046
Variable types: 0 continuous, 2449703 integer (2449703 binary)
Coefficient statistics:
  Matrix range     [1e+00, 1e+12]
  Objective range  [1e+00, 1e+00]
  Bounds range     [1e+00, 1e+00]
  RHS range        [1e+00, 1e+04]
Warning: Model contains large matrix coefficients
         Consider reformulating model or setting NumericFocus parameter
         to avoid numerical issues.
Found heuristic solution: objective 45.0000000
Presolve removed 491 rows and 352 columns (presolve time = 5s)...
Presolve removed 491 rows and 352 columns (presolve time = 10s)...
Presolve removed 491 rows and 352 columns (presolve time = 15s)...
Presolve removed 491 rows and 352 columns (presolve time = 20s)...
Presolve removed 491 rows and 352 columns (presolve time = 25s)...
Presolve removed 491 rows and 352 columns (presolve time = 31s)...
Presolve removed 491 rows and 352 columns (presolve time = 35s)...
Presolve removed 491 rows and 352 columns (presolve time = 41s)...
Presolve removed 491 rows and 352 columns (presolve time = 45s)...
Presolve removed 491 rows and 352 columns (presolve time = 55s)...
Presolve removed 491 rows and 352 columns
Presolve time: 57.04s
Presolved: 28712 rows, 2449351 columns, 17773226 nonzeros
Variable types: 0 continuous, 2449351 integer (2449277 binary)
Deterministic concurrent LP optimizer: primal simplex, dual simplex, and barrier
Showing barrier log only...

Root barrier log...

Elapsed ordering time = 5s
Ordering time: 5.97s

Barrier performed 0 iterations in 72.75 seconds (87.00 work units)
Barrier solve interrupted - model solved by another algorithm

Concurrent spin time: 0.47s

Solved with primal simplex

Root simplex log...

Iteration    Objective       Primal Inf.    Dual Inf.      Time
   19789    4.9538891e+02   0.000000e+00   0.000000e+00     74s

Root relaxation: objective 4.953889e+02, 19789 iterations, 13.63 seconds (13.15 work units)

    Nodes    |    Current Node    |     Objective Bounds      |     Work
 Expl Unexpl |  Obj  Depth IntInf | Incumbent    BestBd   Gap | It/Node Time

     0     0  495.38891    0  199   45.00000  495.38891  1001%     -   78s
H    0     0                     123.0000000  495.38891   303%     -   80s
H    0     0                     125.0000000  495.38891   296%     -   80s
H    0     0                     135.0000000  495.38891   267%     -   80s
H    0     0                     152.0000000  495.38891   226%     -   80s
H    0     0                     158.0000000  495.38891   214%     -  127s
H    0     0                     306.0000000  495.38891  61.9%     -  139s
H    0     0                     307.0000000  495.38891  61.4%     -  140s
H    0     0                     319.0000000  495.38891  55.3%     -  145s
H    0     0                     322.0000000  495.38891  53.8%     -  166s
H    0     0                     323.0000000  495.38891  53.4%     -  168s
H    0     0                     324.0000000  495.38891  52.9%     -  169s
     0     0  439.80008    0  500  324.00000  439.80008  35.7%     -  199s
     0     0  439.17266    0  560  324.00000  439.17266  35.5%     -  295s
     0     0  439.14619    0  556  324.00000  439.14619  35.5%     -  297s
     0     0  439.14606    0  555  324.00000  439.14606  35.5%     -  299s
     0     0  408.45768    0  677  324.00000  408.45768  26.1%     -  336s
     0     0  405.54764    0  623  324.00000  405.54764  25.2%     -  352s
     0     0  405.15457    0  655  324.00000  405.15457  25.0%     -  354s
     0     0  405.15249    0  652  324.00000  405.15249  25.0%     -  357s
     0     0  389.50059    0  611  324.00000  389.50059  20.2%     -  394s
     0     0  387.52380    0  626  324.00000  387.52380  19.6%     -  408s
     0     0  387.46027    0  618  324.00000  387.46027  19.6%     -  411s
     0     0  387.45668    0  619  324.00000  387.45668  19.6%     -  413s
     0     0  374.10464    0  752  324.00000  374.10464  15.5%     -  447s
     0     0  373.06830    0  820  324.00000  373.06830  15.1%     -  463s
     0     0  372.98472    0  776  324.00000  372.98472  15.1%     -  466s
     0     0  372.97277    0  813  324.00000  372.97277  15.1%     -  469s
     0     0     cutoff    0       324.00000  324.00000  0.00%     -  606s

Cutting planes:
  Cover: 1397
  Clique: 4431
  MIR: 72
  StrongCG: 28
  Zero half: 12
  Relax-and-lift: 239

Explored 1 nodes (35296 simplex iterations) in 606.71 seconds (660.05 work units)
Thread count was 20 (of 20 available processors)

Solution count 10: 324 323 322 ... 125

Optimal solution found (tolerance 1.00e-04)
Best objective 3.240000000000e+02, best bound 3.240000000000e+02, gap 0.0000%
